1111100 AB
543 566 588 610 633 659 674 689 704 719 764 779 794 809 824 839 854 869 884 899 914 929 944 960
1111100 AB red
975
1111100 BA
549 572 594 616 639 665 680 695 710 725 770 785 800 815 830 845 860 875 890 905 920 935 950 966
0000011 AB
543 559 575 591 608 625 642 657 672 717 732 747 762 777 792 807 822 837 852 867 882 897 912 928 944 960
0000011 AB red
975
0000011 BA
549 565 581 597 614 631 648 663 678 723 738 753 768 783 798 813 828 843 858 873 888 903 918 934 950 966
